WARNING: for repeatability, setting FPU to use double precision
============================[ Problem Statistics ]=============================
|                                                                             |
|  Number of variables:          2106                                         |
|  Number of clauses:           10300                                         |
|  Parse time:                   0.00 s                                       |
|                                                                             |
============================[ Search Statistics ]==============================
| Conflicts |          ORIGINAL         |          LEARNT          | Progress |
|           |    Vars  Clauses Literals |    Limit  Clauses Lit/Cl |          |
===============================================================================
|       100 |    2106    10300    36900 |     3776      100      5 |  0.000 % |
|       250 |    2106    10300    36900 |     4154      250      9 |  0.000 % |
|       475 |    2106    10300    36900 |     4569      475     14 |  0.000 % |
|       812 |    2106    10300    36900 |     5026      812     15 |  0.000 % |
|      1318 |    2106    10300    36900 |     5529     1318     17 |  0.000 % |
|      2077 |    2106    10300    36900 |     6082     2077     17 |  0.000 % |
|      3216 |    2106    10300    36900 |     6690     3216     19 |  0.000 % |
|      4924 |    2106    10300    36900 |     7359     4924     19 |  0.000 % |
|      7486 |    2106    10300    36900 |     8095     7486     20 |  0.000 % |
|     11330 |    2106    10300    36900 |     8905     7269     19 |  0.000 % |
|     17096 |    2106    10300    36900 |     9795     8549     20 |  0.000 % |
|     25745 |    2106    10300    36900 |    10775     7247     19 |  0.000 % |
|     38719 |    2106    10300    36900 |    11852     9231     20 |  0.000 % |
|     58180 |    2106    10300    36900 |    13038    10425     19 |  0.000 % |
|     87372 |    2106    10300    36900 |    14341    13170     22 |  0.000 % |
|    131161 |    2106    10300    36900 |    15776    13322     20 |  0.000 % |
|    196845 |    2106    10300    36900 |    17353    15135     23 |  0.000 % |
===============================================================================
restarts              : 510
conflicts             : 197084         (50271 /sec)
decisions             : 377295         (0.00 % random) (96239 /sec)
propagations          : 20017722       (5106036 /sec)
conflict literals     : 4306470        (12.09 % deleted)
Memory used           : 10.00 MB
CPU time              : 3.9204 s

SATISFIABLE
